NAME : local_1
TYPE : ATSP
DIMENSION : 14
EDGE_WEIGHT_TYPE : EXPLICIT
EDGE_WEIGHT_FORMAT : FULL_MATRIX
EDGE_WEIGHT_SECTION
0 314 10000000 10000000 192 572 473 10000000 418 346 10000000 10000000 10000000 733 
0 0 10000000 10000000 484 862 712 10000000 648 622 10000000 10000000 10000000 967 
0 10000000 0 311 10000000 10000000 10000000 338 10000000 10000000 716 853 402 10000000 
0 10000000 311 0 10000000 10000000 10000000 505 10000000 10000000 705 805 408 10000000 
0 484 10000000 10000000 0 513 500 10000000 252 156 10000000 10000000 10000000 739 
0 862 10000000 10000000 513 0 236 10000000 673 543 10000000 10000000 10000000 295 
0 712 10000000 10000000 500 236 0 10000000 719 592 10000000 10000000 10000000 269 
0 10000000 338 505 10000000 10000000 10000000 0 10000000 10000000 442 592 223 10000000 
0 648 10000000 10000000 252 673 719 10000000 0 156 10000000 10000000 10000000 939 
0 622 10000000 10000000 156 543 592 10000000 156 0 10000000 10000000 10000000 802 
0 10000000 716 705 10000000 10000000 10000000 442 10000000 10000000 0 191 324 10000000 
0 10000000 853 805 10000000 10000000 10000000 592 10000000 10000000 191 0 453 10000000 
0 10000000 402 408 10000000 10000000 10000000 223 10000000 10000000 324 453 0 10000000 
0 10000000 10000000 10000000 10000000 10000000 10000000 10000000 10000000 10000000 10000000 10000000 10000000 0 
EOF